unknown
(:binary-propagations  2599
 :decisions            1205
 :del-clause           925
 :final-checks         2
 :max-generation       1
 :max-memory           34.76
 :memory               23.37
 :mk-bool-var          5932
 :mk-clause            1633
 :mk-clause-binary     4007
 :num-allocs           961416358
 :num-checks           1
 :propagations         2802
 :quant-instantiations 925
 :restarts             1
 :rlimit-count         2860791
 :time                 0.31)
